WARNING: for repeatability, setting FPU to use double precision
============================[ Problem Statistics ]=============================
|                                                                             |
|  Number of variables:          2621                                         |
|  Number of clauses:           59568                                         |
|  Parse time:                   0.01 s                                       |
|                                                                             |
c ============================[ Search Statistics ]==============================
c | Conflicts |          ORIGINAL         |          LEARNT          | Progress |
c |           |    Vars  Clauses Literals |    Limit  Clauses Lit/Cl |          |
c ===============================================================================
c Switched to VSIDS.
c Switched to LRB.
c Switched to VSIDS.
c Switched to LRB.
c Switched to VSIDS.
c Switched to LRB.
c Switched to VSIDS.
c Switched to LRB.
c Switched to VSIDS.
c Switched to LRB.
c Switched to VSIDS.
c Switched to LRB.
c Switched to VSIDS.
c Switched to LRB.
c Switched to VSIDS.
CAREFUL: the definition is falsified in conflict 6460849 at DL 30 (has happened 1 times)
c Switched to LRB.
c Switched to VSIDS.
c Switched to LRB.
c Switched to VSIDS.
c Switched to LRB.
c Switched to VSIDS.
c Switched to LRB.
c Switched to VSIDS.
c Switched to LRB.
c Switched to VSIDS.
c ===============================================================================
restarts                  : 74156
conflicts                 : 12129897       (3663 /sec)
decisions                 : 38838537       (0.00 % random) (11729 /sec)
propagations              : 3034966338     (916535 /sec)
conflict literals         : 1684683840     (26.35 % deleted)

conflicts w/ DIP found    : 4115275        (33.93 % of conflicts)
conflicts w/ dangerous DIP: 1              (0.00 % of conflicts)
conflicts w/ DIP-learning : 78396          (0.65 % of conflicts)
decisions on ext vars     : 2632518        (6.78 % of decisions)
total ext vars            : 2476        
tried delete ext vars     : 1           
deleted ext vars          : 1           
max ext vars              : 2475        

Memory used               : 486.00 MB
CPU time                  : 3311.35 s
DIP computation time      : 70.6171 s (2.13 % of total time)
ER_sel time               : 18.5159 s
ER_add time               : 0.012554 s
ER_delC time              : 0 s
ER_delV time              : 0.00011 s
ER_sub time               : 22.2172 s
ER_stat time              : 0 s

UNSATISFIABLE
